249 1000
1 451
2 267
3 282
4 438
5 275
6 287 16 24 35 39 41 51 54 55 58 62 63 66 69 72 76 77 89 90 105 108 111 121 122 129 130 150 160 178 180 183 186 187 196 201 205 208 212 219 225 226 232 237 239 240
7 397
8 274
9 329
10 362
11 303
12 335
13 491
14 251
15 258
16 379 51 62 63 72 76 77 90 105 111 121 129 160 201 219 232
17 256
18 365
19 394
20 294
21 312
22 437
23 274
24 289 51 58 62 63 66 69 72 76 77 90 105 111 121 122 129 150 160 178 183 186 201 219 226 232
25 438
26 271
27 291
28 398
29 290
30 312
31 396
32 261
33 343
34 482
35 252 39 41 51 54 58 62 63 66 69 72 76 77 90 105 111 121 122 129 150 160 178 183 186 187 196 201 212 219 225 226 232 237
36 266
37 425
38 252
39 323 51 58 62 63 66 69 72 76 77 90 105 111 121 122 129 150 160 178 183 186 196 201 219 226 232
40 382
41 291 51 58 62 63 66 69 72 76 77 90 105 111 121 122 129 150 160 178 183 186 201 219 226 232
42 327
43 414
44 262
45 324
46 388
47 251
48 361
49 426
50 259
51 315 54 55 58 62 63 66 69 72 76 77 89 90 105 108 111 121 122 129 130 150 160 178 180 183 186 187 196 201 205 208 212 219 225 226 232 237 239 240
52 377
53 258
54 365 58 62 63 66 69 72 76 77 90 105 111 121 122 129 150 160 178 183 186 196 201 212 219 226 232
55 455 62 63 66 69 72 76 77 90 105 111 121 122 129 160 183 186 201 219 226 232
56 266
57 279
58 411 62 63 66 69 72 76 77 89 90 105 108 111 121 122 129 150 160 178 183 186 187 196 201 205 212 219 225 226 232 237
59 260
60 329
61 356
62 295 63 66 69 72 76 77 89 90 105 108 111 121 122 129 130 150 160 178 180 183 186 187 196 201 205 212 219 225 226 232 237 239 240
63 349 64 66 69 72 76 77 89 90 105 106 108 111 121 122 129 130 133 150 157 160 178 180 183 186 187 196 201 205 208 212 216 219 225 226 232 237 239 240 247
64 470 72 76 77 90 121 129 160 201 219 232
65 257
66 273 69 72 76 77 89 90 105 108 111 121 122 129 130 150 160 178 183 186 187 196 201 205 212 219 225 226 232 237
67 449 90
68 252
69 299 72 76 77 89 90 105 108 111 121 122 129 130 150 160 178 183 186 187 196 201 205 212 219 225 226 232 237
70 380
71 280
72 340 76 77 84 89 90 105 106 108 111 121 122 129 130 133 150 157 160 178 180 183 186 187 196 201 205 208 212 216 218 219 225 226 232 237 239 240 247
73 378
74 305
75 317
76 440 77 84 89 90 105 106 108 111 121 122 129 130 133 150 157 160 178 180 183 186 187 196 201 205 208 212 216 218 219 225 226 232 237 239 240 247
77 255 89 90 105 108 111 121 122 129 130 133 150 160 178 180 183 186 187 196 201 205 208 212 216 219 225 226 232 237 239 240 247
78 305
79 435
80 270
81 295
82 478
83 252
84 270 90 121 201 219
85 446
86 252
87 302
88 388
89 274 90 105 111 121 122 129 150 160 178 183 186 201 219 226 232
90 338 96 105 106 108 111 121 122 129 130 133 150 157 160 178 180 183 186 187 196 201 205 208 212 216 218 219 225 226 232 234 237 239 240 247
91 476
92 260
93 264
94 487
95 250
96 263
97 469
98 262
99 269
100 415
101 257
102 328
103 369
104 292
105 339 108 111 121 122 129 130 150 160 178 180 183 186 187 196 201 205 208 212 219 225 226 232 237 239 240
106 377 121 201 219
107 297
108 326 111 121 122 129 150 160 178 183 186 201 219 226 232
109 411
110 282
111 307 121 122 129 130 150 160 178 180 183 186 187 196 201 205 208 212 219 225 226 232 237 239 240
112 369
113 281
114 350
115 436
116 267
117 297
118 459
119 258
120 283
121 458 122 129 130 133 150 157 160 178 180 183 186 187 196 201 205 208 212 216 218 219 225 226 232 234 237 239 240 247
122 268 129 130 150 160 178 183 186 187 196 201 205 212 219 225 226 232 237
123 274
124 460
125 251
126 289
127 488
128 250
129 262 130 133 150 160 178 180 183 186 187 196 201 205 208 212 216 219 225 226 232 237 239 240
130 436 160 183 186 201 219 232
131 263
132 301
133 427 160 201 219 232
134 275
135 298
136 438
137 273
138 289
139 460
140 269
141 271
142 444
143 261
144 295
145 477
146 255
147 268
148 457
149 256
150 287 160 178 183 186 187 196 201 212 219 225 226 232 237
151 419
152 279
153 302
154 417
155 264
156 319
157 417 201 219
158 271
159 312
160 474 178 180 183 186 187 196 201 205 208 212 216 219 225 226 232 237 239 240
161 253
162 273
163 375
164 288
165 337
166 458
167 269
168 273
169 364
170 303
171 333
172 381
173 262
174 357
175 353
176 307
177 340
178 470 183 186 187 196 201 205 212 219 225 226 232 237
179 260
180 270 201 219 232
181 366
182 289
183 345 186 187 196 201 205 212 219 225 226 232 237
184 384
185 264
186 352 187 196 201 205 212 219 225 226 232 237
187 369 201 219 226 232
188 259
189 372
190 470
191 255
192 275
193 471
194 255
195 274
196 424 201 212 219 226 232 237
197 280
198 296
199 440
200 269
201 291 205 208 212 216 218 219 225 226 232 234 237 239 240 247
202 386
203 250
204 364
205 460 219 226 232
206 255
207 285
208 376 219 232
209 292
210 332
211 356
212 303 219 226 232 237
213 341
214 480
215 257
216 263 219 232
217 424
218 268 219
219 308 225 226 232 234 237 239 240 247
220 370
221 275
222 355
223 494
224 250
225 256 226 232
226 434 232 237
227 264
228 302
229 463
230 267
231 270
232 411 237 239 240
233 280
234 309
235 427
236 255
237 318
238 466
239 259
240 275
241 491
242 252
243 257
244 400
245 286
246 314
247 446
248 260
249 294
